c preprocessed version of celar04, 62 vertices, 316 edges
p td 62 316
0 1
0 36
0 37
51 0
52 0
2 1
1 5
1 16
1 17
1 10
1 11
1 26
1 38
1 22
1 12
1 39
1 40
1 27
1 23
37 1
42 1
25 1
2 3
2 6
2 5
2 10
2 26
2 23
2 9
2 8
2 39
2 27
2 21
2 28
2 20
25 2
3 4
6 3
3 5
3 17
3 23
3 22
3 9
3 21
3 20
3 16
3 7
3 10
3 26
3 38
3 27
3 28
15 3
19 3
25 3
54 3
30 3
5 4
16 4
10 4
11 4
35 4
4 40
13 4
41 4
6 5
5 7
5 17
5 10
5 11
5 26
5 38
5 23
5 22
5 12
5 9
5 8
5 39
5 27
5 21
5 28
5 20
5 24
37 5
42 5
15 5
55 5
25 5
29 5
54 5
30 5
6 7
6 10
6 26
6 22
6 8
6 27
6 21
6 28
6 23
6 9
6 24
6 20
25 6
7 8
16 7
7 18
7 17
7 20
15 7
19 7
25 7
9 8
26 8
17 8
8 27
8 28
25 8
30 8
10 9
26 9
9 24
9 27
9 28
25 9
10 11
10 24
10 40
10 20
55 10
25 10
11 12
11 38
37 11
13 12
38 12
35 12
12 39
37 12
36 12
42 12
14 13
13 35
36 13
14 15
14 19
14 34
14 41
33 14
15 16
15 17
15 18
15 20
15 19
34 15
25 15
16 17
16 18
19 16
29 16
54 16
30 16
17 18
17 20
19 17
25 17
19 18
29 18
54 18
30 18
19 20
25 19
29 19
34 19
21 20
24 20
22 20
23 20
25 20
30 20
22 21
23 21
25 21
29 21
54 21
30 21
23 22
38 22
23 24
25 23
25 26
25 27
25 28
55 25
26 27
26 28
30 26
27 28
30 27
29 28
29 30
29 54
31 29
30 31
54 30
32 31
31 54
31 44
31 45
31 46
31 47
43 31
32 33
32 44
32 43
32 50
52 32
33 34
33 41
33 43
33 50
52 33
34 35
34 41
36 35
37 36
37 38
37 39
38 39
39 40
41 42
43 44
43 50
52 43
49 43
44 45
49 44
46 45
47 45
49 45
46 47
48 46
49 46
48 47
49 47
48 49
48 53
49 50
49 51
53 49
50 51
50 52
53 50
52 51
53 51
56 3
56 5
56 6
56 16
56 7
56 17
56 10
56 9
56 8
56 60
56 27
56 18
56 57
56 42
56 58
56 59
56 25
56 29
57 1
57 5
57 60
57 41
57 42
57 58
57 59
58 5
58 60
58 25
58 42
58 55
58 59
59 60
59 25
59 42
59 55
60 2
60 5
60 6
60 10
60 7
60 17
60 18
60 26
60 9
60 22
60 8
60 27
60 28
60 42
60 15
60 19
60 25
61 56
61 57
61 58
61 59
61 60
61 3
61 48
61 53
61 49
